unsat
((set-logic NIA)
(proof
(let (($x960 (exists ((x Int) (y Int) (z Int) (n Int) )(! (let ((?x350 (* (- 6) z00)))
 (let ((?x45 (* 12 y)))
 (let ((?x351 (* (- 12) y00)))
 (let ((?x280 (* z00 z00)))
 (let ((?x936 (+ ?x280 ?x351 ?x45 (* 18 z) ?x350 (* (- 1) (* (+ 6 z) (+ 6 z))))))
 (let (($x958 (not (= ?x936 (- 36)))))
 (let ((?x1206 (* 108 (* x00 x00))))
 (let ((?x196 (* y00 z00 z00 z00)))
 (let ((?x488 (* y00 y00)))
 (let ((?x959 (* 96 ?x488)))
 (let ((?x894 (* 16 (* y00 y00 y00))))
 (let ((?x764 (* (- 4) (* y y y))))
 (let ((?x712 (* 108 (* x x))))
 (let ((?x462 (* y y)))
 (let ((?x707 (* 24 ?x462)))
 (let ((?x1435 (+ (* 216 (* x00 y00)) (* 108 (* y x)) (* 36 (* x00 z00)) (* (- 2) (* z00 z00 z00 x)) (* 18 (* z00 z00 x)) (* (- 12) (* y00 y00 z00)) (* (- 1) (* y00 y00 z00 z00)) ?x707 ?x712 ?x764 (* 18 (* y00 z00 y)) (* 24 (* y00 z00)) (* (- 120) (* y00 y)) (* (- 24) (* z00 y)) ?x894 (* (- 6) (* z00 y y)) ?x959 (* (- 12) (* y00 y y)) (* (- 36) (* x00 y00 z00)) (* (- 108) (* x00 y)) (* (- 18) (* x00 z00 z00)) (* (- 216) (* x00 x)) ?x196 (* 2 (* x00 z00 z00 z00)) (* (- 216) (* y00 x)) (* z00 z00 y y) (* (- 10) (* y00 z00 z00)) (* (- 36) (* z00 x)) (* 36 (* y00 z00 x)) (* 10 (* z00 z00 y)) ?x1206 (* (- 1) (* z00 z00 z00 y)))))
 (let (($x1440 (= ?x1435 0)))
 (let ((?x380 (* z00 z00 y)))
 (let ((?x503 (* 3 ?x380)))
 (let ((?x968 (* y00 y00 z)))
 (let ((?x715 (* 2 ?x968)))
 (let ((?x99 (* y00 z00 z00)))
 (let ((?x661 (* (- 3) ?x99)))
 (let ((?x933 (* y00 z y)))
 (let ((?x658 (* (- 1) ?x933)))
 (let ((?x74 (* 108 x00)))
 (let ((?x745 (* (- 72) y)))
 (let ((?x1191 (* y00 x)))
 (let ((?x657 (* (- 18) ?x1191)))
 (let ((?x67 (* 72 y00)))
 (let ((?x1175 (* (- 108) x)))
 (let ((?x748 (* x00 z00 z00)))
 (let ((?x645 (* (- 3) ?x748)))
 (let ((?x741 (* x00 y)))
 (let ((?x644 (* (- 18) ?x741)))
 (let ((?x833 (* z y y)))
 (let ((?x639 (* (- 1) ?x833)))
 (let ((?x992 (* x00 z)))
 (let ((?x889 (* (- 18) ?x992)))
 (let ((?x638 (* 36 ?x488)))
 (let ((?x1041 (* z00 y y)))
 (let ((?x624 (* (- 2) ?x1041)))
 (let ((?x652 (* z00 z x)))
 (let ((?x595 (* 3 ?x652)))
 (let ((?x577 (* z y)))
 (let ((?x702 (* 12 ?x577)))
 (let ((?x510 (* z00 y)))
 (let ((?x842 (* (- 6) ?x510)))
 (let ((?x666 (* y00 y)))
 (let ((?x637 (* (- 36) ?x666)))
 (let ((?x920 (* y00 z00)))
 (let ((?x539 (* 6 ?x920)))
 (let ((?x795 (* y00 z)))
 (let ((?x879 (* (- 12) ?x795)))
 (let ((?x476 (* y00 z00 y)))
 (let ((?x1091 (* x00 z00 z)))
 (let ((?x636 (* (- 3) ?x1091)))
 (let ((?x113 (* y00 y00 z00)))
 (let ((?x387 (* z00 z00 x)))
 (let ((?x623 (* 3 ?x387)))
 (let ((?x800 (* z x)))
 (let ((?x769 (* 18 ?x800)))
 (let ((?x392 (* y x)))
 (let ((?x602 (* 18 ?x392)))
 (let ((?x578 (* x00 y00)))
 (let ((?x453 (* 18 ?x578)))
 (let ((?x687 (+ ?x453 ?x602 ?x769 ?x623 ?x113 ?x636 ?x476 ?x879 ?x539 ?x637 ?x842 ?x702 ?x595 ?x624 ?x638 ?x889 ?x639 ?x644 ?x645 ?x1175 ?x67 ?x657 ?x745 ?x74 ?x658 ?x661 ?x715 ?x503)))
 (let (($x814 (= ?x687 0)))
 (let ((?x411 (* z00 z y)))
 (let ((?x869 (* (- 1) ?x411)))
 (let ((?x464 (* z00 x)))
 (let ((?x773 (* 18 ?x464)))
 (let ((?x898 (* (- 1) ?x99)))
 (let ((?x743 (* 6 ?x510)))
 (let ((?x897 (* (- 12) ?x666)))
 (let ((?x775 (* (- 6) ?x920)))
 (let ((?x883 (* 24 ?x488)))
 (let ((?x677 (* (- 12) ?x462)))
 (let ((?x693 (* x00 z00)))
 (let ((?x662 (* (- 18) ?x693)))
 (let ((?x864 (* y00 z00 z)))
 (let ((?x565 (+ ?x864 ?x702 ?x769 ?x662 ?x677 ?x883 ?x889 ?x879 ?x775 ?x897 ?x1175 ?x67 ?x743 ?x745 ?x74 ?x898 ?x773 ?x869 ?x380)))
 (let (($x449 (= ?x565 0)))
 (let ((?x438 (* z00 z00 z)))
 (let ((?x671 (* (- 1) ?x438)))
 (let ((?x683 (* z00 z)))
 (let ((?x1174 (* 6 ?x683)))
 (let ((?x1171 (* (- 18) ?x920)))
 (let ((?x796 (* 12 ?x795)))
 (let ((?x1172 (* (- 6) ?x280)))
 (let ((?x55 (* z00 z00 z00)))
 (let ((?x1157 (* 6 ?x577)))
 (let ((?x678 (+ ?x1157 ?x55 ?x1172 ?x796 ?x1171 ?x1175 ?x67 ?x1174 ?x745 ?x74 ?x671)))
 (let (($x1176 (= ?x678 0)))
 (let (($x1156 (= (+ ?x280 ?x351 ?x45 (* 6 z) ?x350 (* (- 1) (* z z))) 0)))
 (let (($x1144 (= (+ z (* (- 1) z00) (* (- 6) n) (* 6 n00)) 0)))
 (and $x1144 $x1156 $x1176 $x449 $x814 $x1440 $x958))))))))))))))))))))))))))))))))))))))))))))))))))))))))))))))))))))))))))))))))))))))))))))))))) :qid k!37))
 ))
 (let (($x688 (exists ((x Int) (y Int) (z Int) (n Int) )(! false :qid k!37))
 ))
 (let ((@x717 (elim-unused (= $x688 false))))
 (let ((?x1165 (lambda ((x Int) (y Int) (z Int) (n Int) )(let ((?x350 (* (- 6) z00)))
 (let ((?x45 (* 12 y)))
 (let ((?x351 (* (- 12) y00)))
 (let ((?x280 (* z00 z00)))
 (let ((?x936 (+ ?x280 ?x351 ?x45 (* 18 z) ?x350 (* (- 1) (* (+ 6 z) (+ 6 z))))))
 (let (($x958 (not (= ?x936 (- 36)))))
 (let ((?x1206 (* 108 (* x00 x00))))
 (let ((?x196 (* y00 z00 z00 z00)))
 (let ((?x488 (* y00 y00)))
 (let ((?x959 (* 96 ?x488)))
 (let ((?x894 (* 16 (* y00 y00 y00))))
 (let ((?x764 (* (- 4) (* y y y))))
 (let ((?x712 (* 108 (* x x))))
 (let ((?x462 (* y y)))
 (let ((?x707 (* 24 ?x462)))
 (let ((?x1435 (+ (* 216 (* x00 y00)) (* 108 (* y x)) (* 36 (* x00 z00)) (* (- 2) (* z00 z00 z00 x)) (* 18 (* z00 z00 x)) (* (- 12) (* y00 y00 z00)) (* (- 1) (* y00 y00 z00 z00)) ?x707 ?x712 ?x764 (* 18 (* y00 z00 y)) (* 24 (* y00 z00)) (* (- 120) (* y00 y)) (* (- 24) (* z00 y)) ?x894 (* (- 6) (* z00 y y)) ?x959 (* (- 12) (* y00 y y)) (* (- 36) (* x00 y00 z00)) (* (- 108) (* x00 y)) (* (- 18) (* x00 z00 z00)) (* (- 216) (* x00 x)) ?x196 (* 2 (* x00 z00 z00 z00)) (* (- 216) (* y00 x)) (* z00 z00 y y) (* (- 10) (* y00 z00 z00)) (* (- 36) (* z00 x)) (* 36 (* y00 z00 x)) (* 10 (* z00 z00 y)) ?x1206 (* (- 1) (* z00 z00 z00 y)))))
 (let (($x1440 (= ?x1435 0)))
 (let ((?x380 (* z00 z00 y)))
 (let ((?x503 (* 3 ?x380)))
 (let ((?x968 (* y00 y00 z)))
 (let ((?x715 (* 2 ?x968)))
 (let ((?x99 (* y00 z00 z00)))
 (let ((?x661 (* (- 3) ?x99)))
 (let ((?x933 (* y00 z y)))
 (let ((?x658 (* (- 1) ?x933)))
 (let ((?x74 (* 108 x00)))
 (let ((?x745 (* (- 72) y)))
 (let ((?x1191 (* y00 x)))
 (let ((?x657 (* (- 18) ?x1191)))
 (let ((?x67 (* 72 y00)))
 (let ((?x1175 (* (- 108) x)))
 (let ((?x748 (* x00 z00 z00)))
 (let ((?x645 (* (- 3) ?x748)))
 (let ((?x741 (* x00 y)))
 (let ((?x644 (* (- 18) ?x741)))
 (let ((?x833 (* z y y)))
 (let ((?x639 (* (- 1) ?x833)))
 (let ((?x992 (* x00 z)))
 (let ((?x889 (* (- 18) ?x992)))
 (let ((?x638 (* 36 ?x488)))
 (let ((?x1041 (* z00 y y)))
 (let ((?x624 (* (- 2) ?x1041)))
 (let ((?x652 (* z00 z x)))
 (let ((?x595 (* 3 ?x652)))
 (let ((?x577 (* z y)))
 (let ((?x702 (* 12 ?x577)))
 (let ((?x510 (* z00 y)))
 (let ((?x842 (* (- 6) ?x510)))
 (let ((?x666 (* y00 y)))
 (let ((?x637 (* (- 36) ?x666)))
 (let ((?x920 (* y00 z00)))
 (let ((?x539 (* 6 ?x920)))
 (let ((?x795 (* y00 z)))
 (let ((?x879 (* (- 12) ?x795)))
 (let ((?x476 (* y00 z00 y)))
 (let ((?x1091 (* x00 z00 z)))
 (let ((?x636 (* (- 3) ?x1091)))
 (let ((?x113 (* y00 y00 z00)))
 (let ((?x387 (* z00 z00 x)))
 (let ((?x623 (* 3 ?x387)))
 (let ((?x800 (* z x)))
 (let ((?x769 (* 18 ?x800)))
 (let ((?x392 (* y x)))
 (let ((?x602 (* 18 ?x392)))
 (let ((?x578 (* x00 y00)))
 (let ((?x453 (* 18 ?x578)))
 (let ((?x687 (+ ?x453 ?x602 ?x769 ?x623 ?x113 ?x636 ?x476 ?x879 ?x539 ?x637 ?x842 ?x702 ?x595 ?x624 ?x638 ?x889 ?x639 ?x644 ?x645 ?x1175 ?x67 ?x657 ?x745 ?x74 ?x658 ?x661 ?x715 ?x503)))
 (let (($x814 (= ?x687 0)))
 (let ((?x411 (* z00 z y)))
 (let ((?x869 (* (- 1) ?x411)))
 (let ((?x464 (* z00 x)))
 (let ((?x773 (* 18 ?x464)))
 (let ((?x898 (* (- 1) ?x99)))
 (let ((?x743 (* 6 ?x510)))
 (let ((?x897 (* (- 12) ?x666)))
 (let ((?x775 (* (- 6) ?x920)))
 (let ((?x883 (* 24 ?x488)))
 (let ((?x677 (* (- 12) ?x462)))
 (let ((?x693 (* x00 z00)))
 (let ((?x662 (* (- 18) ?x693)))
 (let ((?x864 (* y00 z00 z)))
 (let ((?x565 (+ ?x864 ?x702 ?x769 ?x662 ?x677 ?x883 ?x889 ?x879 ?x775 ?x897 ?x1175 ?x67 ?x743 ?x745 ?x74 ?x898 ?x773 ?x869 ?x380)))
 (let (($x449 (= ?x565 0)))
 (let ((?x438 (* z00 z00 z)))
 (let ((?x671 (* (- 1) ?x438)))
 (let ((?x683 (* z00 z)))
 (let ((?x1174 (* 6 ?x683)))
 (let ((?x1171 (* (- 18) ?x920)))
 (let ((?x796 (* 12 ?x795)))
 (let ((?x1172 (* (- 6) ?x280)))
 (let ((?x55 (* z00 z00 z00)))
 (let ((?x1157 (* 6 ?x577)))
 (let ((?x678 (+ ?x1157 ?x55 ?x1172 ?x796 ?x1171 ?x1175 ?x67 ?x1174 ?x745 ?x74 ?x671)))
 (let (($x1176 (= ?x678 0)))
 (let (($x1156 (= (+ ?x280 ?x351 ?x45 (* 6 z) ?x350 (* (- 1) (* z z))) 0)))
 (let (($x1144 (= (+ z (* (- 1) z00) (* (- 6) n) (* 6 n00)) 0)))
 (let (($x944 (and $x1144 $x1156 $x1176 $x449 $x814 $x1440 $x958)))
 (let (($x354 (= (+ ?x45 (* 6 z) ?x350 ?x351 (* (- 1) (* z z)) ?x280) 0)))
 (let (($x942 (not $x354)))
 (let ((?x201 (* y y z00 z00)))
 (let ((?x1226 (+ (* 10 (* y z00 z00)) ?x201 (* (- 1) (* y z00 z00 z00)) (* 216 (* y00 x00)) (* (- 2) (* x z00 z00 z00)) (* 108 (* x y)) (* 24 (* z00 y00)) (* 36 (* z00 x00)) ?x707 ?x959 (* (- 120) (* y y00)) (* 18 (* x z00 z00)) (* (- 24) (* y z00)) (* (- 12) (* z00 y00 y00)) (* (- 10) (* z00 z00 y00)) (* (- 36) (* x z00)) (* 18 (* y z00 y00)) (* (- 1) (* z00 z00 y00 y00)) ?x712 ?x764 (* (- 6) (* y y z00)) (* (- 108) (* y x00)) (* (- 18) (* z00 z00 x00)) (* (- 216) (* x y00)) ?x894 (* (- 12) (* y y y00)) (* (- 36) (* z00 y00 x00)) (* (- 216) (* x x00)) (* z00 z00 z00 y00) (* 2 (* z00 z00 z00 x00)) (* 36 (* x z00 y00)) ?x1206)))
 (let (($x1231 (= ?x1226 0)))
 (let ((?x868 (* y z y00)))
 (let ((?x570 (* y z00)))
 (let ((?x571 (* 6 ?x570)))
 (let ((?x533 (* z x00)))
 (let ((?x534 (* 18 ?x533)))
 (let ((?x791 (* (- 36) ?x488)))
 (let ((?x421 (* z00 y00)))
 (let ((?x696 (* (- 6) ?x421)))
 (let ((?x395 (* z y00)))
 (let ((?x396 (* 12 ?x395)))
 (let ((?x394 (* x z)))
 (let ((?x429 (* (- 18) ?x394)))
 (let ((?x364 (* y z)))
 (let ((?x388 (* (- 12) ?x364)))
 (let ((?x135 (* y y z)))
 (let ((?x500 (* (- 108) x00)))
 (let ((?x443 (* (- 72) y00)))
 (let ((?x71 (* 72 y)))
 (let ((?x64 (* 108 x)))
 (let ((?x927 (+ ?x64 ?x71 ?x443 ?x500 (* (- 3) (* y z00 z00)) ?x135 ?x388 (* (- 18) (* y00 x00)) (* (- 18) (* x y)) ?x429 ?x396 ?x696 ?x791 ?x534 (* 36 (* y y00)) (* (- 3) (* x z00 z00)) ?x571 (* (- 1) (* z00 y00 y00)) (* 3 (* z00 z00 y00)) (* 3 (* z z00 x00)) (* (- 1) (* y z00 y00)) (* (- 3) (* x z z00)) (* 2 (* y y z00)) (* 18 (* y x00)) (* 3 (* z00 z00 x00)) (* 18 (* x y00)) ?x868 (* (- 2) (* z y00 y00)))))
 (let (($x934 (= ?x927 0)))
 (let ((?x622 (* z00 z00 y00)))
 (let ((?x583 (* (- 6) ?x570)))
 (let ((?x517 (* (- 24) ?x488)))
 (let ((?x465 (* 12 ?x462)))
 (let ((?x537 (* 6 ?x421)))
 (let ((?x103 (* y z z00)))
 (let ((?x676 (+ ?x64 ?x71 ?x443 ?x500 ?x103 (* (- 1) (* y z00 z00)) (* (- 1) (* z z00 y00)) ?x388 ?x429 ?x396 ?x537 (* 18 (* z00 x00)) ?x465 ?x517 ?x534 (* 12 (* y y00)) ?x583 ?x622 (* (- 18) (* x z00)))))
 (let (($x681 (= ?x676 0)))
 (let ((?x408 (* (- 12) ?x395)))
 (let ((?x384 (* 6 ?x280)))
 (let ((?x76 (* z z00 z00)))
 (let ((?x373 (* (- 1) ?x55)))
 (let ((?x516 (+ ?x64 ?x71 ?x443 ?x373 ?x500 ?x76 ?x384 (* (- 6) ?x364) ?x408 (* 18 ?x421) (* (- 6) (* z z00)))))
 (let (($x521 (= ?x516 0)))
 (let (($x272 (= (+ z (* (- 6) n) (* (- 1) z00) (* 6 n00)) 0)))
 (let (($x546 (and $x272 $x354 $x521 $x681 $x934 $x1231 $x942)))
 (let ((@x674 (rewrite (= $x546 false))))
 (let ((?x882 (* z y00 y00)))
 (let ((?x955 (* 2 ?x882)))
 (let ((?x1279 (* (- 1) ?x868)))
 (let ((?x838 (* x y00)))
 (let ((?x1274 (* (- 18) ?x838)))
 (let ((?x808 (* z00 z00 x00)))
 (let ((?x1271 (* (- 3) ?x808)))
 (let ((?x804 (* y x00)))
 (let ((?x797 (* (- 18) ?x804)))
 (let ((?x766 (* y y z00)))
 (let ((?x431 (* (- 2) ?x766)))
 (let ((?x740 (* x z z00)))
 (let ((?x1227 (* 3 ?x740)))
 (let ((?x642 (* y z00 y00)))
 (let ((?x625 (* z z00 x00)))
 (let ((?x736 (* (- 3) ?x625)))
 (let ((?x1346 (* (- 3) ?x622)))
 (let ((?x597 (* z00 y00 y00)))
 (let ((?x543 (* x z00 z00)))
 (let ((?x730 (* 3 ?x543)))
 (let ((?x540 (* y y00)))
 (let ((?x440 (* (- 36) ?x540)))
 (let ((?x1213 (* (- 18) ?x533)))
 (let ((?x547 (* 18 ?x394)))
 (let ((?x385 (* x y)))
 (let ((?x807 (* 18 ?x385)))
 (let ((?x368 (* y00 x00)))
 (let ((?x1105 (* 18 ?x368)))
 (let ((?x686 (* 12 ?x364)))
 (let ((?x496 (* (- 1) ?x135)))
 (let ((?x105 (* y z00 z00)))
 (let ((?x956 (* 3 ?x105)))
 (let ((?x719 (+ ?x1175 ?x745 ?x67 ?x74 ?x956 ?x496 ?x686 ?x1105 ?x807 ?x547 ?x408 ?x537 ?x638 ?x1213 ?x440 ?x730 ?x583 ?x597 ?x1346 ?x736 ?x642 ?x1227 ?x431 ?x797 ?x1271 ?x1274 ?x1279 ?x955)))
 (let (($x980 (= ?x719 0)))
 (let ((?x1120 (+ ?x1105 ?x807 ?x547 ?x730 ?x597 ?x736 ?x642 ?x408 ?x537 ?x440 ?x583 ?x686 ?x1227 ?x431 ?x638 ?x1213 ?x496 ?x797 ?x1271 ?x1175 ?x67 ?x1274 ?x745 ?x74 ?x1279 ?x1346 ?x955 ?x956)))
 (let ((@x1215 (rewrite (= ?x889 ?x1213))))
 (let ((@x1069 (rewrite (= ?x702 ?x686))))
 (let ((@x1217 (rewrite (= ?x879 ?x408))))
 (let ((@x799 (rewrite (= ?x769 ?x547))))
 (let ((@x1109 (monotonicity (rewrite (= ?x453 ?x1105)) (rewrite (= ?x602 ?x807)) @x799 (rewrite (= ?x623 ?x730)) (rewrite (= ?x113 ?x597)) (rewrite (= ?x636 ?x736)) (rewrite (= ?x476 ?x642)) @x1217 (rewrite (= ?x539 ?x537)) (rewrite (= ?x637 ?x440)) (rewrite (= ?x842 ?x583)) @x1069 (rewrite (= ?x595 ?x1227)) (rewrite (= ?x624 ?x431)) @x1215 (rewrite (= ?x639 ?x496)) (rewrite (= ?x644 ?x797)) (rewrite (= ?x645 ?x1271)) (rewrite (= ?x657 ?x1274)) (rewrite (= ?x658 ?x1279)) (rewrite (= ?x661 ?x1346)) (rewrite (= ?x715 ?x955)) (rewrite (= ?x503 ?x956)) (= ?x687 ?x1120))))
 (let ((@x1002 (monotonicity (trans @x1109 (rewrite (= ?x1120 ?x719)) (= ?x687 ?x719)) (= $x814 $x980))))
 (let ((?x633 (* x z00)))
 (let ((?x751 (* 18 ?x633)))
 (let ((?x1058 (* (- 1) ?x622)))
 (let ((?x1223 (* (- 12) ?x540)))
 (let ((?x458 (* z00 x00)))
 (let ((?x1424 (* (- 18) ?x458)))
 (let ((?x362 (* z z00 y00)))
 (let ((?x650 (* (- 1) ?x103)))
 (let ((?x1044 (+ ?x1175 ?x745 ?x67 ?x74 ?x650 ?x105 ?x362 ?x686 ?x547 ?x408 ?x696 ?x1424 ?x677 ?x883 ?x1213 ?x1223 ?x571 ?x1058 ?x751)))
 (let (($x1032 (= ?x1044 0)))
 (let ((?x1038 (+ ?x362 ?x686 ?x547 ?x1424 ?x677 ?x883 ?x1213 ?x408 ?x696 ?x1223 ?x1175 ?x67 ?x571 ?x745 ?x74 ?x1058 ?x751 ?x650 ?x105)))
 (let ((@x1043 (monotonicity (rewrite (= ?x864 ?x362)) @x1069 @x799 (rewrite (= ?x662 ?x1424)) @x1215 @x1217 (rewrite (= ?x775 ?x696)) (rewrite (= ?x897 ?x1223)) (rewrite (= ?x743 ?x571)) (rewrite (= ?x898 ?x1058)) (rewrite (= ?x773 ?x751)) (rewrite (= ?x869 ?x650)) (rewrite (= ?x380 ?x105)) (= ?x565 ?x1038))))
 (let ((@x1097 (monotonicity (trans @x1043 (rewrite (= ?x1038 ?x1044)) (= ?x565 ?x1044)) (= $x449 $x1032))))
 (let ((?x456 (* z z00)))
 (let ((?x1163 (* 6 ?x456)))
 (let ((?x1154 (* (- 18) ?x421)))
 (let ((?x1118 (* 6 ?x364)))
 (let ((?x463 (* (- 1) ?x76)))
 (let ((?x892 (+ ?x1175 ?x745 ?x67 ?x55 ?x74 ?x463 ?x1172 ?x1118 ?x396 ?x1154 ?x1163)))
 (let (($x984 (= ?x892 0)))
 (let ((?x614 (+ ?x1118 ?x55 ?x1172 ?x396 ?x1154 ?x1175 ?x67 ?x1163 ?x745 ?x74 ?x463)))
 (let ((@x370 (monotonicity (rewrite (= ?x1157 ?x1118)) (rewrite (= ?x796 ?x396)) (rewrite (= ?x1171 ?x1154)) (rewrite (= ?x1174 ?x1163)) (rewrite (= ?x671 ?x463)) (= ?x678 ?x614))))
 (let ((@x986 (monotonicity (trans @x370 (rewrite (= ?x614 ?x892)) (= ?x678 ?x892)) (= $x1176 $x984))))
 (let ((@x450 (monotonicity (rewrite (= $x1144 $x272)) (rewrite (= $x1156 $x354)) (trans @x986 (rewrite (= $x984 $x521)) (= $x1176 $x521)) (trans @x1097 (rewrite (= $x1032 $x681)) (= $x449 $x681)) (trans @x1002 (rewrite (= $x980 $x934)) (= $x814 $x934)) (rewrite (= $x1440 $x1231)) (rewrite (= $x958 $x942)) (= $x944 $x546))))
 (trans @x450 @x674 (= $x944 false))))))))))))))))))))))))))))))))))))))))))))))))))))))))))))))))))))))))))))))))))))))))))))))))))))))))))))))))))))))))))))))))))))))))))))))))))))))))))))))))))))))))))))))))))))))))))))))))))))))))))))))))
 ))
 (let ((@x1129 (trans (quant-intro (proof-bind ?x1165) (= $x960 $x688)) @x717 (= $x960 false))))
 (let (($x418 (exists ((x Int) (y Int) (z Int) (n Int) )(! (let ((?x698 (+ 6 z)))
 (let ((?x758 (* ?x698 ?x698)))
 (let ((?x49 (* 6 z00)))
 (let ((?x304 (* (- 12) y)))
 (let ((?x43 (* 12 y00)))
 (let ((?x280 (* z00 z00)))
 (let ((?x281 (* (- 1) ?x280)))
 (let ((?x1206 (* 108 (* x00 x00))))
 (let ((?x196 (* y00 z00 z00 z00)))
 (let ((?x488 (* y00 y00)))
 (let ((?x959 (* 96 ?x488)))
 (let ((?x894 (* 16 (* y00 y00 y00))))
 (let ((?x764 (* (- 4) (* y y y))))
 (let ((?x712 (* 108 (* x x))))
 (let ((?x462 (* y y)))
 (let ((?x707 (* 24 ?x462)))
 (let ((?x1435 (+ (* 216 (* x00 y00)) (* 108 (* y x)) (* 36 (* x00 z00)) (* (- 2) (* z00 z00 z00 x)) (* 18 (* z00 z00 x)) (* (- 12) (* y00 y00 z00)) (* (- 1) (* y00 y00 z00 z00)) ?x707 ?x712 ?x764 (* 18 (* y00 z00 y)) (* 24 (* y00 z00)) (* (- 120) (* y00 y)) (* (- 24) (* z00 y)) ?x894 (* (- 6) (* z00 y y)) ?x959 (* (- 12) (* y00 y y)) (* (- 36) (* x00 y00 z00)) (* (- 108) (* x00 y)) (* (- 18) (* x00 z00 z00)) (* (- 216) (* x00 x)) ?x196 (* 2 (* x00 z00 z00 z00)) (* (- 216) (* y00 x)) (* z00 z00 y y) (* (- 10) (* y00 z00 z00)) (* (- 36) (* z00 x)) (* 36 (* y00 z00 x)) (* 10 (* z00 z00 y)) ?x1206 (* (- 1) (* z00 z00 z00 y)))))
 (let (($x1440 (= ?x1435 0)))
 (let ((?x933 (* y00 z y)))
 (let ((?x500 (* (- 108) x00)))
 (let ((?x71 (* 72 y)))
 (let ((?x443 (* (- 72) y00)))
 (let ((?x64 (* 108 x)))
 (let ((?x833 (* z y y)))
 (let ((?x992 (* x00 z)))
 (let ((?x993 (* 18 ?x992)))
 (let ((?x791 (* (- 36) ?x488)))
 (let ((?x577 (* z y)))
 (let ((?x793 (* (- 12) ?x577)))
 (let ((?x510 (* z00 y)))
 (let ((?x743 (* 6 ?x510)))
 (let ((?x920 (* y00 z00)))
 (let ((?x775 (* (- 6) ?x920)))
 (let ((?x795 (* y00 z)))
 (let ((?x796 (* 12 ?x795)))
 (let ((?x800 (* z x)))
 (let ((?x953 (* (- 18) ?x800)))
 (let ((?x1070 (+ (* (- 18) (* x00 y00)) (* (- 18) (* y x)) ?x953 (* (- 3) (* z00 z00 x)) (* (- 1) (* y00 y00 z00)) (* 3 (* x00 z00 z)) (* (- 1) (* y00 z00 y)) ?x796 ?x775 (* 36 (* y00 y)) ?x743 ?x793 (* (- 3) (* z00 z x)) (* 2 (* z00 y y)) ?x791 ?x993 ?x833 (* 18 (* x00 y)) (* 3 (* x00 z00 z00)) ?x64 ?x443 (* 18 (* y00 x)) ?x71 ?x500 ?x933 (* 3 (* y00 z00 z00)) (* (- 2) (* y00 y00 z)) (* (- 3) (* z00 z00 y)))))
 (let ((?x411 (* z00 z y)))
 (let ((?x99 (* y00 z00 z00)))
 (let ((?x842 (* (- 6) ?x510)))
 (let ((?x539 (* 6 ?x920)))
 (let ((?x517 (* (- 24) ?x488)))
 (let ((?x465 (* 12 ?x462)))
 (let ((?x704 (+ (* (- 1) (* y00 z00 z)) ?x793 ?x953 (* 18 (* x00 z00)) ?x465 ?x517 ?x993 ?x796 ?x539 (* 12 (* y00 y)) ?x64 ?x443 ?x842 ?x71 ?x500 ?x99 (* (- 18) (* z00 x)) ?x411 (* (- 1) (* z00 z00 y)))))
 (let ((?x438 (* z00 z00 z)))
 (let ((?x879 (* (- 12) ?x795)))
 (let ((?x384 (* 6 ?x280)))
 (let ((?x55 (* z00 z00 z00)))
 (let ((?x373 (* (- 1) ?x55)))
 (let ((?x372 (+ (* (- 6) ?x577) ?x373 ?x384 ?x879 (* 18 ?x920) ?x64 ?x443 (* (- 6) (* z00 z)) ?x71 ?x500 ?x438)))
 (and (= (+ (* (- 1) z) z00 (* 6 n) (* (- 6) n00)) 0) (= (+ ?x281 ?x43 ?x304 (* (- 6) z) ?x49 (* z z)) 0) (= ?x372 0) (= ?x704 0) (= ?x1070 0) $x1440 (not (= (+ ?x281 ?x43 ?x304 (* (- 18) z) ?x49 ?x758) 36)))))))))))))))))))))))))))))))))))))))))))))))))))))) :qid k!37))
 ))
 (let ((?x963 (lambda ((x Int) (y Int) (z Int) (n Int) )(let ((?x350 (* (- 6) z00)))
 (let ((?x45 (* 12 y)))
 (let ((?x351 (* (- 12) y00)))
 (let ((?x280 (* z00 z00)))
 (let ((?x936 (+ ?x280 ?x351 ?x45 (* 18 z) ?x350 (* (- 1) (* (+ 6 z) (+ 6 z))))))
 (let (($x958 (not (= ?x936 (- 36)))))
 (let ((?x1206 (* 108 (* x00 x00))))
 (let ((?x196 (* y00 z00 z00 z00)))
 (let ((?x488 (* y00 y00)))
 (let ((?x959 (* 96 ?x488)))
 (let ((?x894 (* 16 (* y00 y00 y00))))
 (let ((?x764 (* (- 4) (* y y y))))
 (let ((?x712 (* 108 (* x x))))
 (let ((?x462 (* y y)))
 (let ((?x707 (* 24 ?x462)))
 (let ((?x1435 (+ (* 216 (* x00 y00)) (* 108 (* y x)) (* 36 (* x00 z00)) (* (- 2) (* z00 z00 z00 x)) (* 18 (* z00 z00 x)) (* (- 12) (* y00 y00 z00)) (* (- 1) (* y00 y00 z00 z00)) ?x707 ?x712 ?x764 (* 18 (* y00 z00 y)) (* 24 (* y00 z00)) (* (- 120) (* y00 y)) (* (- 24) (* z00 y)) ?x894 (* (- 6) (* z00 y y)) ?x959 (* (- 12) (* y00 y y)) (* (- 36) (* x00 y00 z00)) (* (- 108) (* x00 y)) (* (- 18) (* x00 z00 z00)) (* (- 216) (* x00 x)) ?x196 (* 2 (* x00 z00 z00 z00)) (* (- 216) (* y00 x)) (* z00 z00 y y) (* (- 10) (* y00 z00 z00)) (* (- 36) (* z00 x)) (* 36 (* y00 z00 x)) (* 10 (* z00 z00 y)) ?x1206 (* (- 1) (* z00 z00 z00 y)))))
 (let (($x1440 (= ?x1435 0)))
 (let ((?x380 (* z00 z00 y)))
 (let ((?x503 (* 3 ?x380)))
 (let ((?x968 (* y00 y00 z)))
 (let ((?x715 (* 2 ?x968)))
 (let ((?x99 (* y00 z00 z00)))
 (let ((?x661 (* (- 3) ?x99)))
 (let ((?x933 (* y00 z y)))
 (let ((?x658 (* (- 1) ?x933)))
 (let ((?x74 (* 108 x00)))
 (let ((?x745 (* (- 72) y)))
 (let ((?x1191 (* y00 x)))
 (let ((?x657 (* (- 18) ?x1191)))
 (let ((?x67 (* 72 y00)))
 (let ((?x1175 (* (- 108) x)))
 (let ((?x748 (* x00 z00 z00)))
 (let ((?x645 (* (- 3) ?x748)))
 (let ((?x741 (* x00 y)))
 (let ((?x644 (* (- 18) ?x741)))
 (let ((?x833 (* z y y)))
 (let ((?x639 (* (- 1) ?x833)))
 (let ((?x992 (* x00 z)))
 (let ((?x889 (* (- 18) ?x992)))
 (let ((?x638 (* 36 ?x488)))
 (let ((?x1041 (* z00 y y)))
 (let ((?x624 (* (- 2) ?x1041)))
 (let ((?x652 (* z00 z x)))
 (let ((?x595 (* 3 ?x652)))
 (let ((?x577 (* z y)))
 (let ((?x702 (* 12 ?x577)))
 (let ((?x510 (* z00 y)))
 (let ((?x842 (* (- 6) ?x510)))
 (let ((?x666 (* y00 y)))
 (let ((?x637 (* (- 36) ?x666)))
 (let ((?x920 (* y00 z00)))
 (let ((?x539 (* 6 ?x920)))
 (let ((?x795 (* y00 z)))
 (let ((?x879 (* (- 12) ?x795)))
 (let ((?x476 (* y00 z00 y)))
 (let ((?x1091 (* x00 z00 z)))
 (let ((?x636 (* (- 3) ?x1091)))
 (let ((?x113 (* y00 y00 z00)))
 (let ((?x387 (* z00 z00 x)))
 (let ((?x623 (* 3 ?x387)))
 (let ((?x800 (* z x)))
 (let ((?x769 (* 18 ?x800)))
 (let ((?x392 (* y x)))
 (let ((?x602 (* 18 ?x392)))
 (let ((?x578 (* x00 y00)))
 (let ((?x453 (* 18 ?x578)))
 (let ((?x687 (+ ?x453 ?x602 ?x769 ?x623 ?x113 ?x636 ?x476 ?x879 ?x539 ?x637 ?x842 ?x702 ?x595 ?x624 ?x638 ?x889 ?x639 ?x644 ?x645 ?x1175 ?x67 ?x657 ?x745 ?x74 ?x658 ?x661 ?x715 ?x503)))
 (let (($x814 (= ?x687 0)))
 (let ((?x411 (* z00 z y)))
 (let ((?x869 (* (- 1) ?x411)))
 (let ((?x464 (* z00 x)))
 (let ((?x773 (* 18 ?x464)))
 (let ((?x898 (* (- 1) ?x99)))
 (let ((?x743 (* 6 ?x510)))
 (let ((?x897 (* (- 12) ?x666)))
 (let ((?x775 (* (- 6) ?x920)))
 (let ((?x883 (* 24 ?x488)))
 (let ((?x677 (* (- 12) ?x462)))
 (let ((?x693 (* x00 z00)))
 (let ((?x662 (* (- 18) ?x693)))
 (let ((?x864 (* y00 z00 z)))
 (let ((?x565 (+ ?x864 ?x702 ?x769 ?x662 ?x677 ?x883 ?x889 ?x879 ?x775 ?x897 ?x1175 ?x67 ?x743 ?x745 ?x74 ?x898 ?x773 ?x869 ?x380)))
 (let (($x449 (= ?x565 0)))
 (let ((?x438 (* z00 z00 z)))
 (let ((?x671 (* (- 1) ?x438)))
 (let ((?x683 (* z00 z)))
 (let ((?x1174 (* 6 ?x683)))
 (let ((?x1171 (* (- 18) ?x920)))
 (let ((?x796 (* 12 ?x795)))
 (let ((?x1172 (* (- 6) ?x280)))
 (let ((?x55 (* z00 z00 z00)))
 (let ((?x1157 (* 6 ?x577)))
 (let ((?x678 (+ ?x1157 ?x55 ?x1172 ?x796 ?x1171 ?x1175 ?x67 ?x1174 ?x745 ?x74 ?x671)))
 (let (($x1176 (= ?x678 0)))
 (let (($x1156 (= (+ ?x280 ?x351 ?x45 (* 6 z) ?x350 (* (- 1) (* z z))) 0)))
 (let (($x1144 (= (+ z (* (- 1) z00) (* (- 6) n) (* 6 n00)) 0)))
 (let (($x944 (and $x1144 $x1156 $x1176 $x449 $x814 $x1440 $x958)))
 (let ((?x698 (+ 6 z)))
 (let ((?x758 (* ?x698 ?x698)))
 (let ((?x49 (* 6 z00)))
 (let ((?x304 (* (- 12) y)))
 (let ((?x43 (* 12 y00)))
 (let ((?x281 (* (- 1) ?x280)))
 (let ((?x500 (* (- 108) x00)))
 (let ((?x71 (* 72 y)))
 (let ((?x443 (* (- 72) y00)))
 (let ((?x64 (* 108 x)))
 (let ((?x993 (* 18 ?x992)))
 (let ((?x791 (* (- 36) ?x488)))
 (let ((?x793 (* (- 12) ?x577)))
 (let ((?x953 (* (- 18) ?x800)))
 (let ((?x1070 (+ (* (- 18) ?x578) (* (- 18) ?x392) ?x953 (* (- 3) ?x387) (* (- 1) ?x113) (* 3 ?x1091) (* (- 1) ?x476) ?x796 ?x775 (* 36 ?x666) ?x743 ?x793 (* (- 3) ?x652) (* 2 ?x1041) ?x791 ?x993 ?x833 (* 18 ?x741) (* 3 ?x748) ?x64 ?x443 (* 18 ?x1191) ?x71 ?x500 ?x933 (* 3 ?x99) (* (- 2) ?x968) (* (- 3) ?x380))))
 (let ((?x517 (* (- 24) ?x488)))
 (let ((?x465 (* 12 ?x462)))
 (let ((?x704 (+ (* (- 1) ?x864) ?x793 ?x953 (* 18 ?x693) ?x465 ?x517 ?x993 ?x796 ?x539 (* 12 ?x666) ?x64 ?x443 ?x842 ?x71 ?x500 ?x99 (* (- 18) ?x464) ?x411 (* (- 1) ?x380))))
 (let ((?x384 (* 6 ?x280)))
 (let ((?x373 (* (- 1) ?x55)))
 (let ((?x372 (+ (* (- 6) ?x577) ?x373 ?x384 ?x879 (* 18 ?x920) ?x64 ?x443 (* (- 6) ?x683) ?x71 ?x500 ?x438)))
 (let (($x1010 (and (= (+ (* (- 1) z) z00 (* 6 n) (* (- 6) n00)) 0) (= (+ ?x281 ?x43 ?x304 (* (- 6) z) ?x49 (* z z)) 0) (= ?x372 0) (= ?x704 0) (= ?x1070 0) $x1440 (not (= (+ ?x281 ?x43 ?x304 (* (- 18) z) ?x49 ?x758) 36)))))
 (rewrite (= $x1010 $x944))))))))))))))))))))))))))))))))))))))))))))))))))))))))))))))))))))))))))))))))))))))))))))))))))))))))))))))))))))))))))
 ))
 (let (($x227 (exists ((x Int) (y Int) (z Int) (n Int) )(! (let ((?x49 (* 6 z00)))
 (let ((?x43 (* 12 y00)))
 (let ((?x29 (- 1)))
 (let ((?x40 (* ?x29 z00 z00)))
 (let ((?x44 (+ ?x40 ?x43)))
 (let ((?x222 (+ (- (- ?x44 (* 12 (+ y z))) (* 6 (+ z 6))) ?x49 (* (+ z 6) (+ z 6)))))
 (let (($x224 (not (= ?x222 0))))
 (let (($x225 (or $x224)))
 (let ((?x212 (* y z00 z00 z00)))
 (let ((?x201 (* y y z00 z00)))
 (let ((?x196 (* y00 z00 z00 z00)))
 (let ((?x161 (* y00 y00 z00 z00)))
 (let ((?x157 (- (+ (* 216 x00 y00) (* 108 x y) (* 36 x00 z00)) (* 2 x z00 z00 z00))))
 (let ((?x163 (- (- (+ ?x157 (* 18 x z00 z00)) (* 12 y00 y00 z00)) ?x161)))
 (let ((?x169 (- (+ ?x163 (* 24 y y) (* 108 x x)) (* 4 y y y))))
 (let ((?x176 (- (+ ?x169 (* 18 y y00 z00) (* 24 y00 z00)) (* 120 y y00))))
 (let ((?x182 (- (+ (- ?x176 (* 24 y z00)) (* 16 y00 y00 y00)) (* 6 y y z00))))
 (let ((?x192 (- (- (+ ?x182 (* 96 y00 y00)) (* 12 y y y00)) (* 36 x00 y00 z00))))
 (let ((?x195 (- (- (- ?x192 (* 108 x00 y)) (* 18 x00 z00 z00)) (* 216 x x00))))
 (let ((?x200 (- (+ ?x195 ?x196 (* 2 x00 z00 z00 z00)) (* 216 x y00))))
 (let ((?x207 (- (- (+ ?x200 ?x201) (* 10 y00 z00 z00)) (* 36 x z00))))
 (let ((?x211 (+ ?x207 (* 36 x y00 z00) (* 10 y z00 z00) (* 108 x00 x00))))
 (let (($x214 (= (- ?x211 ?x212) 0)))
 (let ((?x74 (* 108 x00)))
 (let ((?x71 (* 72 y)))
 (let ((?x67 (* 72 y00)))
 (let ((?x64 (* 108 x)))
 (let ((?x135 (* y y z)))
 (let ((?x90 (* 18 x00 z)))
 (let ((?x80 (* 12 y z)))
 (let ((?x94 (* 6 y z00)))
 (let ((?x91 (* 6 y00 z00)))
 (let ((?x59 (* 12 y00 z)))
 (let ((?x113 (* y00 y00 z00)))
 (let ((?x81 (* 18 x z)))
 (let ((?x116 (- (- (- (* (- 18) x00 y00) (* 18 x y)) ?x81) (* 3 x z00 z00))))
 (let ((?x121 (- (+ (- ?x116 ?x113) (* 3 x00 z z00)) (* y y00 z00))))
 (let ((?x129 (- (- (+ (- (+ ?x121 ?x59) ?x91) (* 36 y y00) ?x94) ?x80) (* 3 x z z00))))
 (let ((?x138 (+ (- (+ ?x129 (* 2 y y z00)) (* 36 y00 y00)) ?x90 ?x135 (* 18 x00 y) (* 3 x00 z00 z00) ?x64)))
 (let ((?x145 (+ (- (+ (- ?x138 ?x67) (* 18 x y00) ?x71) ?x74) (* y y00 z) (* 3 y00 z00 z00))))
 (let (($x150 (= (- (- ?x145 (* 2 y00 y00 z)) (* 3 y z00 z00)) 0)))
 (let ((?x105 (* y z00 z00)))
 (let ((?x103 (* y z z00)))
 (let ((?x99 (* y00 z00 z00)))
 (let ((?x86 (+ (- (- (* ?x29 y00 z z00) ?x80) ?x81) (* 18 x00 z00) (* 12 y y))))
 (let ((?x93 (+ (- ?x86 (* 24 y00 y00)) ?x90 ?x59 ?x91 (* 12 y y00) ?x64)))
 (let ((?x102 (- (+ (- (+ (- (- ?x93 ?x67) ?x94) ?x71) ?x74) ?x99) (* 18 x z00))))
 (let (($x107 (= (- (+ ?x102 ?x103) ?x105) 0)))
 (let ((?x76 (* z z00 z00)))
 (let ((?x58 (+ (- (* (- 6) y z) (* z00 z00 z00)) (* 6 z00 z00))))
 (let ((?x70 (- (- (+ (- ?x58 ?x59) (* 18 y00 z00) ?x64) ?x67) (* 6 z z00))))
 (let (($x78 (= (+ (- (+ ?x70 ?x71) ?x74) ?x76) 0)))
 (let ((?x50 (* z z)))
 (let ((?x46 (* 6 z)))
 (let ((?x45 (* 12 y)))
 (let ((?x47 (- ?x44 ?x45)))
 (let ((?x48 (- ?x47 ?x46)))
 (let ((?x51 (+ ?x48 ?x49 ?x50)))
 (let (($x52 (= ?x51 0)))
 (let ((?x36 (* 6 n00)))
 (let ((?x33 (* 6 n)))
 (let ((?x30 (* ?x29 z)))
 (let ((?x34 (+ ?x30 z00 ?x33)))
 (let ((?x37 (- ?x34 ?x36)))
 (let (($x39 (= ?x37 0)))
 (and $x39 $x52 $x78 $x107 $x150 $x214 $x225)))))))))))))))))))))))))))))))))))))))))))))))))))))))))))))))))) :qid k!37))
 ))
 (let ((?x550 (lambda ((x Int) (y Int) (z Int) (n Int) )(let ((?x698 (+ 6 z)))
 (let ((?x758 (* ?x698 ?x698)))
 (let ((?x49 (* 6 z00)))
 (let ((?x304 (* (- 12) y)))
 (let ((?x43 (* 12 y00)))
 (let ((?x280 (* z00 z00)))
 (let ((?x281 (* (- 1) ?x280)))
 (let ((?x1206 (* 108 (* x00 x00))))
 (let ((?x196 (* y00 z00 z00 z00)))
 (let ((?x488 (* y00 y00)))
 (let ((?x959 (* 96 ?x488)))
 (let ((?x894 (* 16 (* y00 y00 y00))))
 (let ((?x764 (* (- 4) (* y y y))))
 (let ((?x712 (* 108 (* x x))))
 (let ((?x462 (* y y)))
 (let ((?x707 (* 24 ?x462)))
 (let ((?x1435 (+ (* 216 (* x00 y00)) (* 108 (* y x)) (* 36 (* x00 z00)) (* (- 2) (* z00 z00 z00 x)) (* 18 (* z00 z00 x)) (* (- 12) (* y00 y00 z00)) (* (- 1) (* y00 y00 z00 z00)) ?x707 ?x712 ?x764 (* 18 (* y00 z00 y)) (* 24 (* y00 z00)) (* (- 120) (* y00 y)) (* (- 24) (* z00 y)) ?x894 (* (- 6) (* z00 y y)) ?x959 (* (- 12) (* y00 y y)) (* (- 36) (* x00 y00 z00)) (* (- 108) (* x00 y)) (* (- 18) (* x00 z00 z00)) (* (- 216) (* x00 x)) ?x196 (* 2 (* x00 z00 z00 z00)) (* (- 216) (* y00 x)) (* z00 z00 y y) (* (- 10) (* y00 z00 z00)) (* (- 36) (* z00 x)) (* 36 (* y00 z00 x)) (* 10 (* z00 z00 y)) ?x1206 (* (- 1) (* z00 z00 z00 y)))))
 (let (($x1440 (= ?x1435 0)))
 (let ((?x933 (* y00 z y)))
 (let ((?x500 (* (- 108) x00)))
 (let ((?x71 (* 72 y)))
 (let ((?x443 (* (- 72) y00)))
 (let ((?x64 (* 108 x)))
 (let ((?x833 (* z y y)))
 (let ((?x992 (* x00 z)))
 (let ((?x993 (* 18 ?x992)))
 (let ((?x791 (* (- 36) ?x488)))
 (let ((?x577 (* z y)))
 (let ((?x793 (* (- 12) ?x577)))
 (let ((?x510 (* z00 y)))
 (let ((?x743 (* 6 ?x510)))
 (let ((?x920 (* y00 z00)))
 (let ((?x775 (* (- 6) ?x920)))
 (let ((?x795 (* y00 z)))
 (let ((?x796 (* 12 ?x795)))
 (let ((?x800 (* z x)))
 (let ((?x953 (* (- 18) ?x800)))
 (let ((?x1070 (+ (* (- 18) (* x00 y00)) (* (- 18) (* y x)) ?x953 (* (- 3) (* z00 z00 x)) (* (- 1) (* y00 y00 z00)) (* 3 (* x00 z00 z)) (* (- 1) (* y00 z00 y)) ?x796 ?x775 (* 36 (* y00 y)) ?x743 ?x793 (* (- 3) (* z00 z x)) (* 2 (* z00 y y)) ?x791 ?x993 ?x833 (* 18 (* x00 y)) (* 3 (* x00 z00 z00)) ?x64 ?x443 (* 18 (* y00 x)) ?x71 ?x500 ?x933 (* 3 (* y00 z00 z00)) (* (- 2) (* y00 y00 z)) (* (- 3) (* z00 z00 y)))))
 (let ((?x411 (* z00 z y)))
 (let ((?x99 (* y00 z00 z00)))
 (let ((?x842 (* (- 6) ?x510)))
 (let ((?x539 (* 6 ?x920)))
 (let ((?x517 (* (- 24) ?x488)))
 (let ((?x465 (* 12 ?x462)))
 (let ((?x704 (+ (* (- 1) (* y00 z00 z)) ?x793 ?x953 (* 18 (* x00 z00)) ?x465 ?x517 ?x993 ?x796 ?x539 (* 12 (* y00 y)) ?x64 ?x443 ?x842 ?x71 ?x500 ?x99 (* (- 18) (* z00 x)) ?x411 (* (- 1) (* z00 z00 y)))))
 (let ((?x438 (* z00 z00 z)))
 (let ((?x879 (* (- 12) ?x795)))
 (let ((?x384 (* 6 ?x280)))
 (let ((?x55 (* z00 z00 z00)))
 (let ((?x373 (* (- 1) ?x55)))
 (let ((?x372 (+ (* (- 6) ?x577) ?x373 ?x384 ?x879 (* 18 ?x920) ?x64 ?x443 (* (- 6) (* z00 z)) ?x71 ?x500 ?x438)))
 (let (($x1010 (and (= (+ (* (- 1) z) z00 (* 6 n) (* (- 6) n00)) 0) (= (+ ?x281 ?x43 ?x304 (* (- 6) z) ?x49 (* z z)) 0) (= ?x372 0) (= ?x704 0) (= ?x1070 0) $x1440 (not (= (+ ?x281 ?x43 ?x304 (* (- 18) z) ?x49 ?x758) 36)))))
 (let ((?x220 (- (- (+ (* (- 1) z00 z00) ?x43) (* 12 (+ y z))) (* 6 (+ z 6)))))
 (let (($x224 (not (= (+ ?x220 ?x49 (* (+ z 6) (+ z 6))) 0))))
 (let (($x225 (or $x224)))
 (let ((?x212 (* y z00 z00 z00)))
 (let ((?x201 (* y y z00 z00)))
 (let ((?x161 (* y00 y00 z00 z00)))
 (let ((?x157 (- (+ (* 216 x00 y00) (* 108 x y) (* 36 x00 z00)) (* 2 x z00 z00 z00))))
 (let ((?x163 (- (- (+ ?x157 (* 18 x z00 z00)) (* 12 y00 y00 z00)) ?x161)))
 (let ((?x169 (- (+ ?x163 (* 24 y y) (* 108 x x)) (* 4 y y y))))
 (let ((?x176 (- (+ ?x169 (* 18 y y00 z00) (* 24 y00 z00)) (* 120 y y00))))
 (let ((?x182 (- (+ (- ?x176 (* 24 y z00)) (* 16 y00 y00 y00)) (* 6 y y z00))))
 (let ((?x192 (- (- (+ ?x182 (* 96 y00 y00)) (* 12 y y y00)) (* 36 x00 y00 z00))))
 (let ((?x195 (- (- (- ?x192 (* 108 x00 y)) (* 18 x00 z00 z00)) (* 216 x x00))))
 (let ((?x200 (- (+ ?x195 ?x196 (* 2 x00 z00 z00 z00)) (* 216 x y00))))
 (let ((?x207 (- (- (+ ?x200 ?x201) (* 10 y00 z00 z00)) (* 36 x z00))))
 (let ((?x211 (+ ?x207 (* 36 x y00 z00) (* 10 y z00 z00) (* 108 x00 x00))))
 (let (($x214 (= (- ?x211 ?x212) 0)))
 (let ((?x74 (* 108 x00)))
 (let ((?x67 (* 72 y00)))
 (let ((?x135 (* y y z)))
 (let ((?x90 (* 18 x00 z)))
 (let ((?x80 (* 12 y z)))
 (let ((?x94 (* 6 y z00)))
 (let ((?x91 (* 6 y00 z00)))
 (let ((?x59 (* 12 y00 z)))
 (let ((?x113 (* y00 y00 z00)))
 (let ((?x81 (* 18 x z)))
 (let ((?x116 (- (- (- (* (- 18) x00 y00) (* 18 x y)) ?x81) (* 3 x z00 z00))))
 (let ((?x121 (- (+ (- ?x116 ?x113) (* 3 x00 z z00)) (* y y00 z00))))
 (let ((?x129 (- (- (+ (- (+ ?x121 ?x59) ?x91) (* 36 y y00) ?x94) ?x80) (* 3 x z z00))))
 (let ((?x138 (+ (- (+ ?x129 (* 2 y y z00)) (* 36 y00 y00)) ?x90 ?x135 (* 18 x00 y) (* 3 x00 z00 z00) ?x64)))
 (let ((?x145 (+ (- (+ (- ?x138 ?x67) (* 18 x y00) ?x71) ?x74) (* y y00 z) (* 3 y00 z00 z00))))
 (let (($x150 (= (- (- ?x145 (* 2 y00 y00 z)) (* 3 y z00 z00)) 0)))
 (let ((?x105 (* y z00 z00)))
 (let ((?x103 (* y z z00)))
 (let ((?x86 (+ (- (- (* (- 1) y00 z z00) ?x80) ?x81) (* 18 x00 z00) (* 12 y y))))
 (let ((?x93 (+ (- ?x86 (* 24 y00 y00)) ?x90 ?x59 ?x91 (* 12 y y00) ?x64)))
 (let ((?x102 (- (+ (- (+ (- (- ?x93 ?x67) ?x94) ?x71) ?x74) ?x99) (* 18 x z00))))
 (let (($x107 (= (- (+ ?x102 ?x103) ?x105) 0)))
 (let ((?x76 (* z z00 z00)))
 (let ((?x60 (- (+ (- (* (- 6) y z) ?x55) (* 6 z00 z00)) ?x59)))
 (let ((?x70 (- (- (+ ?x60 (* 18 y00 z00) ?x64) ?x67) (* 6 z z00))))
 (let (($x78 (= (+ (- (+ ?x70 ?x71) ?x74) ?x76) 0)))
 (let ((?x50 (* z z)))
 (let ((?x46 (* 6 z)))
 (let ((?x45 (* 12 y)))
 (let ((?x29 (- 1)))
 (let ((?x40 (* ?x29 z00 z00)))
 (let ((?x44 (+ ?x40 ?x43)))
 (let ((?x47 (- ?x44 ?x45)))
 (let ((?x48 (- ?x47 ?x46)))
 (let ((?x51 (+ ?x48 ?x49 ?x50)))
 (let (($x52 (= ?x51 0)))
 (let ((?x36 (* 6 n00)))
 (let ((?x33 (* 6 n)))
 (let ((?x30 (* ?x29 z)))
 (let ((?x34 (+ ?x30 z00 ?x33)))
 (let ((?x37 (- ?x34 ?x36)))
 (let (($x39 (= ?x37 0)))
 (let (($x226 (and $x39 $x52 $x78 $x107 $x150 $x214 $x225)))
 (rewrite (= $x226 $x1010)))))))))))))))))))))))))))))))))))))))))))))))))))))))))))))))))))))))))))))))))))))))))))))))))))))))))))))))))))
 ))
 (let ((@x228 (asserted $x227)))
 (let ((@x643 (mp (mp @x228 (quant-intro (proof-bind ?x550) (= $x227 $x418)) $x418) (rewrite (= $x418 $x418)) $x418)))
 (mp (mp @x643 (quant-intro (proof-bind ?x963) (= $x418 $x960)) $x960) @x1129 false))))))))))))))

(:max-memory   3.63
 :memory       3.31
 :mk-bool-var  6
 :num-allocs   1093854
 :num-checks   1
 :rlimit-count 3311
 :time         0.01
 :total-time   0.02)
